p cnf 66 100
-34 31 0
-34 32 0
34 -31 -32 0
-35 29 0
-35 30 0
35 -29 -30 0
-36 25 0
-36 26 0
36 -25 -26 0
-37 21 0
-37 22 0
37 -21 -22 0
-38 19 0
-38 20 0
38 -19 -20 0
-39 17 0
-39 18 0
39 -17 -18 0
-40 -38 0
-40 -39 0
40 38 39 0
-41 -37 0
-41 40 0
41 37 -40 0
-42 23 0
-42 24 0
42 -23 -24 0
-43 41 0
-43 -42 0
43 -41 42 0
-44 -36 0
-44 43 0
44 36 -43 0
-45 27 0
-45 28 0
45 -27 -28 0
-46 44 0
-46 -45 0
46 -44 45 0
-47 -35 0
-47 46 0
47 35 -46 0
-48 -34 0
-48 47 0
48 34 -47 0
-49 -33 0
-49 -48 0
49 33 48 0
-50 13 0
-50 14 0
50 -13 -14 0
-51 11 0
-51 12 0
51 -11 -12 0
-52 5 0
-52 6 0
52 -5 -6 0
-53 3 0
-53 4 0
53 -3 -4 0
-54 1 0
-54 2 0
54 -1 -2 0
-55 -53 0
-55 -54 0
55 53 54 0
-56 -52 0
-56 55 0
56 52 -55 0
-57 7 0
-57 8 0
57 -7 -8 0
-58 56 0
-58 -57 0
58 -56 57 0
-59 9 0
-59 10 0
59 -9 -10 0
-60 58 0
-60 -59 0
60 -58 59 0
-61 -51 0
-61 60 0
61 51 -60 0
-62 -50 0
-62 61 0
62 50 -61 0
-63 15 0
-63 16 0
63 -15 -16 0
-64 62 0
-64 -63 0
64 -62 63 0
-65 33 0
-65 -64 0
65 -33 64 0
-66 -49 0
-66 -65 0
66 49 65 0
-66 0
